cmake-build-debug/stochastic_inventory/workforce/piecewise.lp
\ LP format - for model browsing. Use MPS format to capture full model detail.
\ Signature: 0x3705e9ff41ef2cd7
Minimize
  10 y_0 + 10 x_0 + 80 u_0 + 100 z_0 + 10 y_1 + 10 x_1 + 80 u_1 + 100 z_1
   + 10 y_2 + 20 x_2 + 80 u_2 + 100 z_2 - 10 S
Subject To
 R0: z_0 = 0
 R1: S = 69
 R2: y_0 - S >= 0
 R3: y_0 - 6000 z_0 - S <= 0
 R4: P_0_0 = 1
 R5: - z_0 + P_0_0 >= 0
 R6: - 0.5 y_0 + x_0 - 6000 P_0_0 >= -6000
 R7: - 0.5 y_0 + x_0 + 6000 P_0_0 <= 6000
 R8: 0.5 y_0 + u_0 - 6000 P_0_0 >= -5960
 R9: 0.4428999436616757 y_0 + u_0 - 6000 P_0_0 >= -5963.76432406046
 R10: 0.3793028607889947 y_0 + u_0 - 6000 P_0_0 >= -5968.319703950147
 R11: 0.3172477794443486 y_0 + u_0 - 6000 P_0_0 >= -5972.975823246213
 R12: 0.25 y_0 + u_0 - 6000 P_0_0 >= -5978.221442424522
 R13: 0.1851632103364457 y_0 + u_0 - 6000 P_0_0 >= -5983.471905511016
 R14: 0.1288564329709754 y_0 + u_0 - 6000 P_0_0 >= -5988.199287777029
 R15: 0.0722740201740152 y_0 + u_0 - 6000 P_0_0 >= -5993.143337611584
 R16: 0.0205482671392359 y_0 + u_0 - 6000 P_0_0 >= -5997.924612342546
 R17: 0.0205482671392359 y_0 + u_0 - 6000 P_0_0 >= -6000
 R18: - x_0 + y_1 >= 0
 R19: - x_0 + y_1 - 6000 z_1 <= 0
 R20: P_0_1 + P_1_1 = 1
 R21: - z_0 + z_1 + P_0_1 >= 0
 R22: - z_1 + P_1_1 >= 0
 R23: - 0.25 y_0 + x_1 - 6000 P_0_1 >= -6000
 R24: - 0.25 y_0 + x_1 + 6000 P_0_1 <= 6000
 R25: - 0.5 y_1 + x_1 - 6000 P_1_1 >= -6000
 R26: - 0.5 y_1 + x_1 + 6000 P_1_1 <= 6000
 R27: 0.25 y_0 + u_1 - 6000 P_0_1 >= -5960
 R28: 0.2232880687826016 y_0 + u_1 - 6000 P_0_1 >= -5963.334367220549
 R29: 0.1956949934108716 y_0 + u_1 - 6000 P_0_1 >= -5967.150583919276
 R30: 0.167363289506186 y_0 + u_1 - 6000 P_0_1 >= -5971.28976551633
 R31: 0.1403218984711063 y_0 + u_1 - 6000 P_0_1 >= -5975.414273037741
 R32: 0.1129156897036646 y_0 + u_1 - 6000 P_0_1 >= -5979.757823256062
 R33: 0.0871297433531259 y_0 + u_1 - 6000 P_0_1 >= -5983.998402619087
 R34: 0.0610644454037989 y_0 + u_1 - 6000 P_0_1 >= -5988.452666307345
 R35: 0.0356108504728926 y_0 + u_1 - 6000 P_0_1 >= -5993.001926108654
 R36: 0.0101260523548347 y_0 + u_1 - 6000 P_0_1 >= -5997.859463031706
 R37: 0.5 y_1 + u_1 - 6000 P_1_1 >= -5960
 R38: 0.4428999436616757 y_1 + u_1 - 6000 P_1_1 >= -5963.76432406046
 R39: 0.3793028607889947 y_1 + u_1 - 6000 P_1_1 >= -5968.319703950147
 R40: 0.3172477794443486 y_1 + u_1 - 6000 P_1_1 >= -5972.975823246213
 R41: 0.25 y_1 + u_1 - 6000 P_1_1 >= -5978.221442424522
 R42: 0.1851632103364457 y_1 + u_1 - 6000 P_1_1 >= -5983.471905511016
 R43: 0.1288564329709754 y_1 + u_1 - 6000 P_1_1 >= -5988.199287777029
 R44: 0.0722740201740152 y_1 + u_1 - 6000 P_1_1 >= -5993.143337611584
 R45: 0.0205482671392359 y_1 + u_1 - 6000 P_1_1 >= -5997.924612342546
 R46: 0.0205482671392359 y_1 + u_1 - 6000 P_1_1 >= -6000
 R47: - x_1 + y_2 >= 0
 R48: - x_1 + y_2 - 6000 z_2 <= 0
 R49: P_0_2 + P_1_2 + P_2_2 = 1
 R50: - z_0 + z_1 + z_2 + P_0_2 >= 0
 R51: - z_1 + z_2 + P_1_2 >= 0
 R52: - z_2 + P_2_2 >= 0
 R53: - 0.125 y_0 + x_2 - 6000 P_0_2 >= -6000
 R54: - 0.125 y_0 + x_2 + 6000 P_0_2 <= 6000
 R55: - 0.25 y_1 + x_2 - 6000 P_1_2 >= -6000
 R56: - 0.25 y_1 + x_2 + 6000 P_1_2 <= 6000
 R57: - 0.5 y_2 + x_2 - 6000 P_2_2 >= -6000
 R58: - 0.5 y_2 + x_2 + 6000 P_2_2 <= 6000
 R59: 0.125 y_0 + u_2 - 6000 P_0_2 >= -5960
 R60: 0.1123263545201908 y_0 + u_2 - 6000 P_0_2 >= -5963.079672012657
 R61: 0.099273768908085 y_0 + u_2 - 6000 P_0_2 >= -5966.625528313063
 R62: 0.0865069782513357 y_0 + u_2 - 6000 P_0_2 >= -5970.298572113873
 R63: 0.0731318848306396 y_0 + u_2 - 6000 P_0_2 >= -5974.325501604067
 R64: 0.0603915465270949 y_0 + u_2 - 6000 P_0_2 >= -5978.319530180628
 R65: 0.0471337037212636 y_0 + u_2 - 6000 P_0_2 >= -5982.640495174244
 R66: 0.0344219156528675 y_0 + u_2 - 6000 P_0_2 >= -5986.953819265004
 R67: 0.0213996072488644 y_0 + u_2 - 6000 P_0_2 >= -5991.577274019472
 R68: 0.00876644148377223 y_0 + u_2 - 6000 P_0_2 >= -5996.338961307094
 R69: 0.25 y_1 + u_2 - 6000 P_1_2 >= -5960
 R70: 0.2232880687826016 y_1 + u_2 - 6000 P_1_2 >= -5963.334367220549
 R71: 0.1956949934108716 y_1 + u_2 - 6000 P_1_2 >= -5967.150583919276
 R72: 0.167363289506186 y_1 + u_2 - 6000 P_1_2 >= -5971.28976551633
 R73: 0.1403218984711063 y_1 + u_2 - 6000 P_1_2 >= -5975.414273037741
 R74: 0.1129156897036646 y_1 + u_2 - 6000 P_1_2 >= -5979.757823256062
 R75: 0.0871297433531259 y_1 + u_2 - 6000 P_1_2 >= -5983.998402619087
 R76: 0.0610644454037989 y_1 + u_2 - 6000 P_1_2 >= -5988.452666307345
 R77: 0.0356108504728926 y_1 + u_2 - 6000 P_1_2 >= -5993.001926108654
 R78: 0.0101260523548347 y_1 + u_2 - 6000 P_1_2 >= -5997.859463031706
 R79: 0.5 y_2 + u_2 - 6000 P_2_2 >= -5960
 R80: 0.4428999436616757 y_2 + u_2 - 6000 P_2_2 >= -5963.76432406046
 R81: 0.3793028607889947 y_2 + u_2 - 6000 P_2_2 >= -5968.319703950147
 R82: 0.3172477794443486 y_2 + u_2 - 6000 P_2_2 >= -5972.975823246213
 R83: 0.25 y_2 + u_2 - 6000 P_2_2 >= -5978.221442424522
 R84: 0.1851632103364457 y_2 + u_2 - 6000 P_2_2 >= -5983.471905511016
 R85: 0.1288564329709754 y_2 + u_2 - 6000 P_2_2 >= -5988.199287777029
 R86: 0.0722740201740152 y_2 + u_2 - 6000 P_2_2 >= -5993.143337611584
 R87: 0.0205482671392359 y_2 + u_2 - 6000 P_2_2 >= -5997.924612342546
 R88: 0.0205482671392359 y_2 + u_2 - 6000 P_2_2 >= -6000
Bounds
Binaries
 z_0 P_0_0 z_1 P_0_1 P_1_1 z_2 P_0_2 P_1_2 P_2_2
End
