cmake-build-debug/stochastic_inventory/workforce/piecewise.sol
# Objective value = 4.0787171513931744e+03
y_0 69
x_0 34.5
u_0 5.6755798268832223e+00
z_0 0
P_0_0 1
y_1 80.9796893667894
x_1 40.4898446833947
u_1 1.5336352337805628e+00
z_1 1
P_0_1 0
P_1_1 1
y_2 7.8004347826093593e+01
x_2 3.9002173913046796e+01
u_2 2.2774706189544962e+00
z_2 1
P_0_2 0
P_1_2 0
P_2_2 1
S 69
